p cnf 14 27
14 -13 11 0
-14 13 5 0
-14 -12 -3 0
14 -10 -9 0
14 9 2 0
14 8 -6 0
14 7 -5 0
-14 6 -4 0
14 -6 -2 0
14 6 -1 0
14 -3 2 0
14 -2 1 0
-13 -11 -9 0
-13 11 -6 0
-13 -8 3 0
-12 -9 -6 0
-12 -9 -1 0
11 -9 5 0
-11 -8 -1 0
10 -9 4 0
10 -7 1 0
-9 -8 -7 0
-9 -4 1 0
8 -6 -5 0
-8 -6 1 0
7 -3 -2 0
7 3 -1 0
